
Value of objective function: 1.67307692

Actual values of the variables:
score                     1.67308
x_0_t_1                       0.5
x_1_t_1                       0.5
x_0_t_0                         0
x_0_t_2                       0.5
x_0_t_3                       0.5
x_0_t_4                  0.817308
x_0_t_5                  0.817308
x_0_t_6                  0.817308
x_0_t_7                  0.817308
x_0_t_8                  0.817308
x_0_t_9                  0.817308
x_0_t_10                 0.817308
x_0_t_11                 0.817308
x_0_t_12                 0.817308
x_1_t_0                         0
x_1_t_2                  0.826923
x_1_t_3                  0.826923
x_1_t_4                  0.826923
x_1_t_5                  0.826923
x_1_t_6                  0.826923
x_1_t_7                  0.826923
x_1_t_8                  0.826923
x_1_t_9                  0.826923
x_1_t_10                 0.826923
x_1_t_11                 0.826923
x_1_t_12                 0.826923
x_10_t_0                        0
x_10_t_1                        0
x_10_t_2                        0
x_10_t_3                        0
x_10_t_4                        0
x_10_t_5                        0
x_10_t_6                        0
x_10_t_7                        0
x_10_t_8                        0
x_10_t_9                        0
x_10_t_10                0.288462
x_10_t_11                0.961538
x_10_t_12                0.961538
x_11_t_0                        0
x_11_t_1                        0
x_11_t_2                        0
x_11_t_3                        0
x_11_t_4                        0
x_11_t_5                        0
x_11_t_6                        0
x_11_t_7                        0
x_11_t_8                        0
x_11_t_9                        0
x_11_t_10                       0
x_11_t_11               0.0384615
x_11_t_12                       1
x_2_t_0                         0
x_2_t_1                         0
x_2_t_2                  0.173077
x_2_t_3                  0.663462
x_2_t_4                  0.663462
x_2_t_5                  0.663462
x_2_t_6                  0.663462
x_2_t_7                  0.663462
x_2_t_8                  0.663462
x_2_t_9                  0.663462
x_2_t_10                 0.663462
x_2_t_11                 0.663462
x_2_t_12                 0.663462
x_3_t_0                         0
x_3_t_1                         0
x_3_t_2                         0
x_3_t_3                  0.336538
x_3_t_4                  0.336538
x_3_t_5                  0.336538
x_3_t_6                  0.673077
x_3_t_7                  0.673077
x_3_t_8                  0.673077
x_3_t_9                  0.673077
x_3_t_10                 0.673077
x_3_t_11                 0.673077
x_3_t_12                 0.673077
x_4_t_0                         0
x_4_t_1                         0
x_4_t_2                         0
x_4_t_3                  0.182692
x_4_t_4                  0.182692
x_4_t_5                  0.788462
x_4_t_6                  0.788462
x_4_t_7                  0.788462
x_4_t_8                  0.788462
x_4_t_9                  0.788462
x_4_t_10                 0.788462
x_4_t_11                 0.788462
x_4_t_12                 0.788462
x_5_t_0                         0
x_5_t_1                         0
x_5_t_2                         0
x_5_t_3                         0
x_5_t_4                         0
x_5_t_5                  0.211538
x_5_t_6                  0.211538
x_5_t_7                  0.211538
x_5_t_8                  0.596154
x_5_t_9                  0.596154
x_5_t_10                 0.596154
x_5_t_11                 0.596154
x_5_t_12                        1
x_6_t_0                         0
x_6_t_1                         0
x_6_t_2                         0
x_6_t_3                         0
x_6_t_4                         0
x_6_t_5                         0
x_6_t_6                  0.326923
x_6_t_7                         1
x_6_t_8                         1
x_6_t_9                         1
x_6_t_10                        1
x_6_t_11                        1
x_6_t_12                        1
x_7_t_0                         0
x_7_t_1                         0
x_7_t_2                         0
x_7_t_3                         0
x_7_t_4                         0
x_7_t_5                         0
x_7_t_6                         0
x_7_t_7                         0
x_7_t_8                         0
x_7_t_9                         0
x_7_t_10                 0.711538
x_7_t_11                 0.711538
x_7_t_12                        1
x_8_t_0                         0
x_8_t_1                         0
x_8_t_2                         0
x_8_t_3                         0
x_8_t_4                         0
x_8_t_5                         0
x_8_t_6                         0
x_8_t_7                         0
x_8_t_8                  0.403846
x_8_t_9                         1
x_8_t_10                        1
x_8_t_11                        1
x_8_t_12                        1
x_9_t_0                         0
x_9_t_1                         0
x_9_t_2                         0
x_9_t_3                         0
x_9_t_4                         0
x_9_t_5                         0
x_9_t_6                         0
x_9_t_7                         0
x_9_t_8                         0
x_9_t_9                         0
x_9_t_10                        0
x_9_t_11                        0
x_9_t_12                        0
